c gencount --qnf --reset --enable 2
c $Id: gencount.c,v 1.19 2003/11/17 21:14:59 biere Exp $
p cnf 58 141
e 29 30 31 32 33 34 35 36 37 38 39 40 41 42 50 51 52 53 54 55 56 0
r 0.531 58 0
e 15 16 17 18 19 20 21 22 23 24 25 26 27 28 43 44 45 46 47 48 49 0
r 0.331 57 0
e 1 2 3 4 5 6 7 8 9 10 11 12 13 14 0
-58 -15 29 0
-58 15 -29 0
-58 -16 30 0
-58 16 -30 0
-58 -17 31 0
-58 17 -31 0
-58 -18 32 0
-58 18 -32 0
-58 -19 33 0
-58 19 -33 0
-58 -20 34 0
-58 20 -34 0
-58 -21 35 0
-58 21 -35 0
-58 -22 50 0
-58 22 -50 0
-58 -23 51 0
-58 23 -51 0
-58 -24 52 0
-58 24 -52 0
-58 -25 53 0
-58 25 -53 0
-58 -26 54 0
-58 26 -54 0
-58 -27 55 0
-58 27 -55 0
-58 -28 56 0
-58 28 -56 0
58 -15 50 0
58 15 -50 0
58 -16 51 0
58 16 -51 0
58 -17 52 0
58 17 -52 0
58 -18 53 0
58 18 -53 0
58 -19 54 0
58 19 -54 0
58 -20 55 0
58 20 -55 0
58 -21 56 0
58 21 -56 0
58 -22 36 0
58 22 -36 0
58 -23 37 0
58 23 -37 0
58 -24 38 0
58 24 -38 0
58 -25 39 0
58 25 -39 0
58 -26 40 0
58 26 -40 0
58 -27 41 0
58 27 -41 0
58 -28 42 0
58 28 -42 0
-57 -1 15 0
-57 1 -15 0
-57 -2 16 0
-57 2 -16 0
-57 -3 17 0
-57 3 -17 0
-57 -4 18 0
-57 4 -18 0
-57 -5 19 0
-57 5 -19 0
-57 -6 20 0
-57 6 -20 0
-57 -7 21 0
-57 7 -21 0
-57 -8 43 0
-57 8 -43 0
-57 -9 44 0
-57 9 -44 0
-57 -10 45 0
-57 10 -45 0
-57 -11 46 0
-57 11 -46 0
-57 -12 47 0
-57 12 -47 0
-57 -13 48 0
-57 13 -48 0
-57 -14 49 0
-57 14 -49 0
57 -1 43 0
57 1 -43 0
57 -2 44 0
57 2 -44 0
57 -3 45 0
57 3 -45 0
57 -4 46 0
57 4 -46 0
57 -5 47 0
57 5 -47 0
57 -6 48 0
57 6 -48 0
57 -7 49 0
57 7 -49 0
57 -8 22 0
57 8 -22 0
57 -9 23 0
57 9 -23 0
57 -10 24 0
57 10 -24 0
57 -11 25 0
57 11 -25 0
57 -12 26 0
57 12 -26 0
57 -13 27 0
57 13 -27 0
57 -14 28 0
57 14 -28 0
-31 0
-34 0
-35 0
-5 7 0
-5 4 0
5 -7 -4 0
-4 6 0
4 -6 0
1 -2 -14 7 4 0
1 -2 -14 -7 -4 0
1 -2 14 -7 4 0
1 -2 14 7 -4 0
1 -2 -13 -6 0
1 -2 13 6 0
-1 -14 0
-1 -13 0
1 2 -14 7 0
1 2 14 -7 0
1 2 -13 6 0
1 2 13 -6 0
-10 3 5 0
-3 10 0
10 -5 0
-12 14 0
-12 11 0
12 -14 -11 0
-11 13 0
11 -13 0
38 0
